Minimize
 [ - 2 x(1) * x(2) - 2 x(1) * x(3) - 2 x(1) * x(5) - 2 x(1) * x(9)
   - 2 x(1) * x(10) - 2 x(2) * x(3) - 2 x(2) * x(4) - 2 x(2) * x(10)
   - 2 x(3) * x(4) - 2 x(3) * x(5) - 2 x(5) * x(4) - 2 x(5) * x(6)
   - 2 x(5) * x(7) - 2 x(9) * x(10) - 2 x(9) * x(7) - 2 x(9) * x(8)
   - 2 x(10) * x(8) - 2 x(4) * x(7) - 2 x(4) * x(6) - 2 x(6) * x(8)
   - 2 x(6) * x(7) - 2 x(7) * x(8) ] / 2 
Subject To
 con1: x(1) + x(2) + x(3) + x(5) + x(9) + x(10) + x(4) + x(6) + x(7) + x(8)
   = 1
Bounds
x(1) <= 1
x(2) <= 1
x(3) <= 1
x(4) <= 1
x(5) <= 1
x(6) <= 1
x(7) <= 1
x(8) <= 1
x(9) <= 1
x(10) <= 1
End
